p edge 633 3166
e 1 2
e 1 3
e 1 4
e 1 5
e 1 6
e 1 7
e 1 8
e 1 9
e 1 10
e 1 11
e 1 12
e 1 13
e 1 14
e 1 15
e 1 16
e 1 17
e 1 18
e 1 19
e 1 20
e 1 21
e 1 22
e 1 23
e 1 24
e 1 25
e 1 26
e 1 27
e 1 28
e 1 29
e 1 499
e 1 500
e 1 501
e 1 502
e 1 503
e 1 504
e 1 505
e 1 506
e 1 507
e 1 508
e 1 509
e 1 510
e 1 511
e 1 512
e 1 513
e 1 514
e 1 515
e 1 516
e 2 6
e 2 7
e 2 119
e 2 123
e 2 124
e 2 129
e 2 134
e 2 135
e 2 216
e 2 220
e 2 221
e 2 226
e 2 235
e 2 257
e 2 313
e 2 329
e 2 363
e 2 365
e 2 376
e 2 377
e 2 378
e 2 379
e 2 380
e 3 5
e 3 7
e 3 140
e 3 146
e 3 149
e 3 151
e 3 162
e 3 165
e 3 218
e 3 231
e 3 236
e 3 295
e 3 321
e 3 368
e 3 381
e 3 382
e 3 383
e 3 384
e 4 5
e 4 6
e 4 139
e 4 145
e 4 155
e 4 168
e 4 173
e 4 183
e 4 223
e 4 228
e 4 242
e 4 245
e 4 255
e 4 299
e 4 316
e 4 366
e 4 369
e 4 385
e 4 386
e 4 387
e 5 138
e 5 143
e 5 144
e 5 147
e 5 229
e 5 230
e 5 232
e 5 241
e 5 318
e 5 323
e 5 366
e 5 388
e 5 389
e 5 390
e 6 121
e 6 131
e 6 153
e 6 158
e 6 171
e 6 175
e 6 217
e 6 234
e 6 237
e 6 244
e 6 250
e 6 304
e 6 312
e 6 363
e 6 369
e 6 391
e 6 392
e 6 393
e 7 120
e 7 130
e 7 150
e 7 163
e 7 179
e 7 187
e 7 222
e 7 239
e 7 240
e 7 247
e 7 252
e 7 303
e 7 328
e 7 365
e 7 368
e 7 394
e 7 395
e 7 396
e 7 397
e 7 426
e 8 21
e 8 22
e 8 31
e 8 34
e 8 39
e 8 192
e 8 195
e 8 218
e 8 232
e 8 250
e 8 255
e 8 336
e 8 337
e 8 357
e 8 398
e 9 15
e 9 16
e 9 30
e 9 43
e 9 46
e 9 56
e 9 198
e 9 200
e 9 223
e 9 229
e 9 331
e 9 339
e 9 360
e 10 25
e 10 29
e 10 30
e 10 64
e 10 69
e 10 70
e 10 204
e 10 220
e 10 234
e 10 239
e 10 342
e 11 19
e 11 20
e 11 75
e 11 138
e 11 139
e 11 140
e 11 259
e 11 261
e 11 263
e 11 268
e 11 312
e 11 332
e 11 345
e 11 361
e 11 377
e 11 394
e 11 398
e 11 399
e 11 400
e 11 437
e 12 17
e 12 18
e 12 70
e 12 81
e 12 83
e 12 145
e 12 146
e 12 202
e 12 260
e 12 266
e 12 269
e 12 273
e 12 328
e 12 347
e 12 359
e 12 378
e 12 391
e 12 401
e 12 402
e 13 23
e 13 27
e 13 39
e 13 87
e 13 91
e 13 119
e 13 120
e 13 121
e 13 198
e 13 263
e 13 274
e 13 278
e 13 281
e 13 316
e 13 352
e 13 353
e 13 381
e 13 388
e 13 403
e 13 404
e 14 24
e 14 28
e 14 56
e 14 96
e 14 100
e 14 129
e 14 130
e 14 131
e 14 192
e 14 196
e 14 197
e 14 273
e 14 275
e 14 280
e 14 283
e 14 321
e 14 334
e 14 349
e 14 355
e 14 385
e 14 389
e 14 405
e 14 406
e 14 433
e 15 53
e 15 96
e 15 228
e 15 294
e 15 344
e 15 360
e 16 26
e 16 54
e 16 104
e 16 205
e 16 236
e 16 252
e 16 339
e 16 348
e 17 23
e 17 64
e 17 71
e 17 147
e 17 158
e 17 168
e 17 205
e 17 271
e 17 280
e 17 284
e 17 286
e 17 295
e 17 331
e 17 338
e 17 359
e 17 379
e 17 395
e 17 400
e 17 408
e 18 27
e 18 34
e 18 108
e 18 149
e 18 150
e 18 261
e 18 272
e 18 275
e 18 285
e 18 313
e 18 343
e 18 347
e 18 392
e 18 410
e 18 411
e 19 24
e 19 46
e 19 79
e 19 104
e 19 143
e 19 175
e 19 183
e 19 204
e 19 264
e 19 269
e 19 281
e 19 285
e 19 300
e 19 329
e 19 341
e 19 345
e 19 382
e 19 396
e 19 412
e 19 413
e 19 439
e 20 28
e 20 60
e 20 144
e 20 162
e 20 163
e 20 206
e 20 265
e 20 274
e 20 279
e 20 286
e 20 299
e 20 336
e 20 340
e 20 361
e 20 380
e 20 402
e 20 415
e 20 436
e 21 25
e 21 41
e 21 83
e 21 108
e 21 196
e 21 206
e 21 208
e 21 241
e 21 244
e 21 245
e 21 332
e 21 337
e 21 350
e 21 416
e 22 29
e 22 42
e 22 87
e 22 92
e 22 197
e 22 213
e 22 230
e 22 231
e 22 247
e 22 297
e 22 346
e 22 357
e 23 69
e 23 92
e 23 115
e 23 123
e 23 153
e 23 155
e 23 200
e 23 268
e 23 279
e 23 283
e 23 287
e 23 294
e 23 323
e 23 338
e 23 352
e 23 383
e 23 397
e 23 413
e 23 417
e 24 43
e 24 53
e 24 54
e 24 134
e 24 171
e 24 173
e 24 212
e 24 213
e 24 266
e 24 271
e 24 272
e 24 289
e 24 303
e 24 341
e 24 355
e 24 384
e 24 390
e 24 404
e 24 407
e 24 416
e 24 418
e 24 435
e 24 438
e 25 71
e 25 81
e 25 216
e 25 217
e 25 300
e 25 350
e 25 407
e 26 60
e 26 75
e 26 79
e 26 202
e 26 221
e 26 222
e 26 348
e 26 354
e 27 31
e 27 41
e 27 42
e 27 124
e 27 151
e 27 179
e 27 259
e 27 264
e 27 265
e 27 289
e 27 304
e 27 343
e 27 353
e 27 386
e 27 406
e 27 409
e 28 59
e 28 111
e 28 135
e 28 165
e 28 187
e 28 195
e 28 208
e 28 260
e 28 278
e 28 284
e 28 287
e 28 297
e 28 318
e 28 340
e 28 349
e 28 387
e 28 393
e 28 411
e 28 414
e 28 434
e 29 91
e 29 115
e 29 212
e 29 240
e 29 257
e 29 334
e 29 342
e 29 346
e 30 67
e 30 364
e 30 367
e 31 32
e 31 33
e 31 34
e 31 35
e 31 36
e 31 37
e 31 38
e 31 39
e 31 40
e 31 41
e 31 42
e 32 33
e 32 82
e 32 115
e 32 255
e 32 256
e 32 287
e 32 293
e 32 308
e 32 386
e 33 81
e 33 182
e 33 232
e 33 273
e 33 298
e 33 301
e 34 35
e 34 49
e 34 108
e 34 128
e 34 301
e 34 315
e 35 187
e 35 191
e 35 217
e 35 240
e 35 343
e 36 40
e 36 115
e 36 116
e 36 157
e 36 193
e 36 240
e 36 264
e 36 314
e 36 322
e 36 397
e 37 41
e 37 49
e 37 182
e 37 187
e 37 287
e 37 288
e 37 325
e 37 337
e 37 351
e 37 397
e 38 42
e 38 46
e 38 50
e 38 90
e 38 104
e 38 129
e 38 133
e 38 153
e 38 157
e 38 273
e 38 279
e 38 308
e 38 324
e 38 339
e 38 357
e 38 378
e 39 87
e 39 90
e 39 256
e 39 277
e 40 153
e 40 156
e 40 217
e 40 219
e 40 289
e 40 290
e 40 315
e 40 351
e 40 375
e 41 108
e 41 251
e 41 262
e 41 375
e 42 87
e 42 94
e 42 156
e 42 181
e 42 322
e 42 327
e 42 367
e 43 44
e 43 45
e 43 46
e 43 47
e 43 48
e 43 49
e 43 50
e 43 51
e 43 52
e 43 53
e 43 54
e 43 55
e 43 56
e 44 45
e 44 173
e 44 184
e 44 223
e 44 284
e 44 311
e 44 373
e 45 75
e 45 78
e 45 80
e 45 178
e 45 229
e 45 263
e 45 296
e 45 305
e 45 390
e 46 52
e 46 104
e 46 136
e 46 184
e 46 305
e 46 320
e 46 367
e 47 51
e 47 75
e 47 76
e 47 221
e 47 224
e 47 225
e 47 266
e 47 270
e 47 310
e 47 377
e 48 56
e 48 103
e 48 119
e 48 199
e 48 221
e 48 355
e 49 53
e 49 99
e 49 108
e 49 119
e 49 125
e 49 187
e 49 190
e 49 263
e 49 284
e 49 309
e 49 337
e 49 360
e 49 377
e 49 395
e 50 54
e 50 153
e 50 172
e 50 178
e 50 287
e 50 288
e 50 310
e 50 339
e 50 393
e 51 55
e 51 80
e 51 111
e 51 112
e 51 190
e 51 199
e 51 237
e 51 238
e 51 272
e 51 317
e 51 330
e 51 393
e 52 153
e 52 159
e 52 222
e 52 237
e 52 341
e 52 395
e 53 96
e 53 103
e 53 177
e 53 189
e 53 311
e 53 317
e 54 104
e 54 238
e 54 254
e 54 270
e 54 291
e 55 187
e 55 189
e 55 222
e 55 227
e 55 289
e 55 320
e 56 96
e 56 99
e 56 225
e 56 282
e 56 373
e 57 58
e 57 96
e 57 101
e 57 102
e 57 166
e 57 225
e 57 226
e 57 273
e 57 296
e 57 305
e 57 372
e 57 380
e 58 97
e 58 104
e 58 238
e 58 285
e 58 307
e 58 372
e 59 63
e 59 72
e 59 111
e 59 189
e 59 238
e 59 291
e 59 296
e 59 311
e 60 62
e 60 75
e 60 167
e 60 184
e 60 225
e 60 320
e 60 330
e 60 364
e 60 370
e 61 101
e 61 104
e 61 185
e 61 201
e 61 236
e 61 279
e 61 291
e 61 317
e 61 330
e 61 382
e 62 69
e 62 74
e 62 115
e 62 148
e 62 183
e 62 185
e 62 264
e 62 273
e 62 307
e 62 319
e 62 342
e 62 354
e 62 386
e 62 389
e 63 149
e 63 228
e 63 236
e 63 340
e 63 386
e 64 65
e 64 66
e 64 67
e 64 68
e 64 69
e 64 70
e 64 71
e 64 72
e 64 73
e 64 74
e 65 66
e 65 87
e 65 93
e 65 170
e 65 215
e 65 220
e 65 263
e 65 298
e 65 301
e 65 379
e 66 156
e 66 158
e 66 213
e 66 234
e 66 272
e 66 315
e 66 371
e 66 374
e 67 111
e 67 297
e 67 331
e 67 364
e 67 370
e 68 70
e 68 85
e 68 138
e 68 203
e 68 230
e 68 333
e 68 359
e 69 115
e 69 156
e 69 298
e 69 327
e 69 364
e 70 81
e 70 84
e 70 374
e 71 72
e 71 81
e 71 85
e 71 314
e 71 315
e 72 84
e 72 111
e 72 138
e 72 142
e 72 149
e 72 152
e 72 263
e 72 272
e 72 306
e 72 384
e 72 388
e 73 93
e 73 108
e 73 152
e 73 203
e 73 245
e 73 284
e 73 314
e 73 322
e 73 371
e 74 170
e 74 183
e 74 285
e 74 342
e 74 370
e 75 76
e 75 77
e 75 78
e 75 79
e 75 80
e 76 111
e 76 142
e 76 222
e 76 284
e 76 311
e 76 320
e 76 394
e 77 87
e 77 91
e 77 107
e 77 118
e 77 168
e 77 170
e 77 171
e 77 178
e 77 272
e 77 284
e 77 310
e 77 346
e 77 348
e 77 387
e 77 392
e 78 171
e 78 177
e 78 237
e 78 268
e 78 330
e 79 104
e 79 107
e 79 224
e 79 243
e 80 111
e 80 242
e 80 243
e 80 259
e 80 387
e 81 82
e 81 83
e 81 84
e 81 85
e 81 86
e 82 115
e 82 148
e 82 217
e 82 248
e 82 279
e 82 315
e 82 327
e 82 362
e 82 374
e 82 391
e 83 86
e 83 108
e 83 109
e 83 181
e 83 248
e 83 298
e 83 322
e 84 138
e 84 148
e 84 259
e 84 319
e 85 138
e 85 141
e 85 232
e 85 240
e 85 302
e 85 359
e 85 396
e 85 398
e 86 96
e 86 100
e 86 110
e 86 114
e 86 162
e 86 166
e 86 179
e 86 182
e 86 264
e 86 279
e 86 325
e 86 344
e 86 350
e 86 383
e 86 396
e 87 88
e 87 89
e 87 90
e 87 91
e 87 92
e 87 93
e 87 94
e 87 95
e 88 89
e 88 108
e 88 125
e 88 209
e 88 231
e 88 272
e 88 315
e 88 327
e 88 375
e 88 381
e 88 416
e 89 120
e 89 181
e 89 208
e 89 211
e 89 247
e 89 284
e 89 314
e 90 122
e 90 125
e 90 129
e 90 280
e 90 309
e 90 357
e 90 379
e 91 115
e 91 117
e 91 128
e 91 301
e 91 314
e 92 115
e 92 118
e 92 233
e 92 248
e 92 293
e 93 95
e 93 108
e 93 244
e 93 248
e 93 251
e 93 274
e 93 277
e 93 309
e 93 371
e 93 392
e 94 129
e 94 137
e 94 208
e 94 209
e 94 210
e 94 220
e 94 245
e 94 335
e 94 353
e 94 387
e 95 122
e 95 249
e 95 278
e 95 293
e 95 297
e 95 364
e 96 97
e 96 98
e 96 99
e 96 100
e 96 101
e 96 102
e 96 103
e 97 98
e 97 104
e 97 106
e 97 133
e 97 207
e 97 228
e 97 243
e 97 264
e 97 311
e 97 320
e 97 373
e 97 385
e 98 131
e 98 177
e 98 279
e 98 326
e 98 330
e 98 372
e 99 119
e 99 132
e 99 133
e 99 274
e 99 276
e 99 324
e 99 360
e 99 380
e 100 111
e 100 113
e 100 136
e 100 167
e 100 243
e 100 305
e 100 330
e 101 104
e 101 252
e 101 254
e 101 280
e 101 282
e 101 324
e 101 396
e 102 162
e 102 167
e 102 236
e 102 275
e 102 317
e 103 119
e 103 207
e 103 226
e 103 236
e 103 355
e 103 383
e 104 105
e 104 106
e 104 107
e 105 168
e 105 169
e 105 201
e 105 226
e 105 228
e 105 345
e 105 378
e 106 129
e 106 136
e 106 226
e 106 281
e 106 296
e 106 356
e 107 168
e 107 185
e 107 280
e 107 307
e 107 348
e 107 356
e 107 385
e 108 109
e 108 110
e 109 162
e 109 164
e 109 203
e 109 220
e 109 231
e 109 333
e 109 347
e 109 377
e 110 152
e 110 162
e 110 274
e 110 276
e 110 306
e 110 350
e 110 381
e 111 112
e 111 113
e 111 114
e 112 135
e 112 136
e 112 198
e 112 235
e 112 263
e 112 296
e 113 179
e 113 198
e 113 199
e 113 222
e 113 229
e 113 349
e 113 388
e 114 179
e 114 188
e 114 190
e 114 259
e 114 344
e 114 394
e 115 116
e 115 117
e 115 118
e 116 123
e 116 128
e 116 192
e 116 257
e 116 273
e 116 298
e 116 358
e 116 362
e 117 171
e 117 174
e 117 192
e 117 193
e 117 217
e 117 232
e 117 352
e 117 389
e 117 407
e 117 426
e 118 154
e 118 157
e 118 171
e 118 266
e 118 267
e 118 308
e 118 346
e 118 391
e 119 120
e 119 121
e 119 122
e 119 123
e 119 124
e 119 125
e 119 126
e 119 127
e 119 128
e 120 179
e 120 276
e 120 314
e 120 381
e 120 397
e 121 122
e 121 133
e 121 153
e 121 176
e 121 207
e 121 222
e 121 252
e 121 280
e 121 284
e 121 304
e 121 316
e 121 348
e 121 349
e 122 200
e 122 309
e 122 339
e 122 363
e 123 153
e 123 219
e 123 288
e 123 298
e 123 324
e 123 379
e 123 397
e 124 127
e 124 179
e 124 190
e 124 199
e 124 236
e 124 253
e 124 279
e 124 287
e 124 304
e 124 313
e 124 339
e 124 340
e 125 126
e 125 130
e 125 279
e 125 280
e 125 281
e 125 315
e 125 329
e 125 351
e 125 395
e 125 417
e 126 134
e 126 176
e 126 256
e 126 287
e 126 292
e 126 404
e 126 417
e 127 130
e 127 187
e 127 210
e 127 292
e 127 349
e 127 353
e 128 192
e 128 256
e 128 257
e 128 275
e 128 277
e 128 310
e 128 314
e 128 315
e 128 371
e 129 130
e 129 131
e 129 132
e 129 133
e 129 134
e 129 135
e 129 136
e 129 137
e 130 132
e 130 180
e 130 187
e 130 194
e 130 209
e 130 217
e 130 244
e 130 274
e 130 279
e 130 292
e 130 303
e 130 321
e 130 350
e 130 351
e 130 352
e 131 171
e 131 249
e 131 308
e 131 330
e 131 385
e 131 393
e 131 440
e 132 195
e 132 208
e 132 324
e 132 337
e 132 365
e 133 274
e 133 275
e 133 284
e 133 313
e 133 320
e 133 373
e 133 414
e 134 157
e 134 171
e 134 172
e 134 193
e 134 214
e 134 245
e 134 246
e 134 255
e 134 284
e 134 287
e 134 303
e 134 329
e 134 337
e 134 338
e 135 187
e 135 227
e 135 288
e 135 296
e 135 309
e 135 380
e 135 393
e 135 443
e 136 198
e 136 235
e 136 281
e 136 282
e 136 320
e 136 325
e 136 330
e 137 195
e 137 217
e 137 255
e 137 257
e 137 334
e 137 387
e 137 422
e 137 444
e 138 139
e 138 140
e 138 141
e 138 142
e 138 143
e 138 144
e 139 148
e 139 183
e 139 231
e 139 266
e 139 272
e 139 299
e 139 312
e 139 346
e 139 347
e 140 162
e 140 306
e 140 317
e 140 333
e 140 382
e 140 394
e 140 441
e 141 204
e 141 231
e 141 239
e 141 241
e 141 332
e 141 396
e 141 424
e 141 442
e 142 146
e 142 264
e 142 266
e 142 268
e 142 311
e 142 323
e 142 384
e 142 412
e 143 183
e 143 302
e 143 305
e 143 319
e 143 382
e 143 390
e 144 152
e 144 162
e 144 203
e 144 239
e 144 240
e 144 264
e 144 285
e 144 299
e 144 318
e 144 342
e 144 343
e 145 168
e 145 267
e 145 307
e 145 322
e 145 391
e 146 149
e 146 228
e 146 242
e 146 259
e 146 264
e 146 295
e 146 328
e 146 344
e 146 345
e 147 168
e 147 185
e 147 201
e 147 237
e 147 272
e 147 285
e 147 295
e 147 323
e 147 341
e 148 259
e 148 260
e 148 272
e 148 318
e 148 327
e 148 374
e 148 386
e 148 410
e 149 150
e 149 151
e 149 152
e 150 166
e 150 179
e 150 229
e 150 263
e 150 274
e 150 313
e 150 328
e 150 360
e 150 361
e 151 179
e 151 327
e 151 381
e 152 264
e 152 274
e 152 275
e 152 314
e 152 321
e 152 388
e 152 409
e 153 154
e 153 155
e 153 156
e 153 157
e 153 158
e 153 159
e 153 160
e 153 161
e 154 155
e 154 205
e 154 308
e 154 348
e 154 369
e 155 168
e 155 178
e 155 221
e 155 226
e 155 266
e 155 273
e 155 316
e 155 323
e 155 354
e 155 355
e 155 356
e 156 213
e 156 233
e 156 234
e 156 289
e 156 293
e 156 298
e 156 307
e 156 322
e 156 335
e 157 161
e 157 266
e 157 268
e 157 284
e 157 312
e 157 322
e 157 378
e 157 408
e 158 160
e 158 168
e 158 310
e 158 315
e 158 379
e 158 391
e 159 205
e 159 226
e 159 252
e 159 294
e 159 376
e 159 395
e 160 172
e 160 213
e 160 338
e 160 357
e 161 175
e 161 233
e 161 280
e 161 408
e 161 413
e 162 163
e 162 164
e 162 165
e 162 166
e 162 167
e 163 187
e 163 276
e 163 320
e 163 325
e 163 380
e 163 394
e 163 442
e 164 216
e 164 218
e 164 240
e 164 336
e 164 377
e 164 425
e 164 443
e 165 182
e 165 187
e 165 188
e 165 216
e 165 220
e 165 259
e 165 263
e 165 318
e 165 321
e 165 353
e 166 263
e 166 285
e 166 286
e 166 295
e 166 305
e 166 396
e 166 399
e 167 275
e 167 305
e 167 319
e 167 320
e 168 169
e 168 170
e 169 202
e 169 221
e 169 223
e 169 237
e 169 331
e 169 378
e 170 175
e 170 273
e 170 285
e 170 286
e 170 299
e 170 301
e 170 392
e 170 401
e 171 172
e 171 173
e 171 174
e 171 175
e 171 176
e 171 177
e 171 178
e 171 428
e 171 430
e 172 192
e 172 197
e 172 246
e 172 310
e 172 357
e 172 363
e 173 183
e 173 267
e 173 311
e 173 385
e 173 390
e 173 444
e 174 197
e 174 230
e 174 234
e 174 245
e 174 389
e 174 427
e 175 183
e 175 215
e 175 230
e 175 232
e 175 258
e 175 273
e 175 280
e 175 312
e 175 329
e 175 357
e 175 358
e 175 359
e 176 178
e 176 254
e 176 280
e 176 404
e 176 405
e 177 254
e 177 268
e 177 270
e 177 296
e 177 309
e 177 311
e 178 227
e 178 273
e 178 287
e 178 289
e 178 296
e 178 304
e 178 356
e 178 387
e 178 405
e 179 180
e 179 181
e 179 182
e 180 182
e 180 251
e 180 274
e 180 403
e 180 406
e 181 208
e 181 247
e 181 251
e 181 260
e 181 262
e 181 298
e 181 324
e 181 327
e 181 362
e 182 219
e 182 263
e 182 287
e 182 289
e 182 298
e 182 303
e 182 383
e 182 403
e 183 184
e 183 185
e 183 186
e 183 431
e 184 223
e 184 224
e 184 286
e 184 305
e 184 308
e 184 330
e 184 370
e 184 372
e 185 272
e 185 280
e 185 281
e 185 316
e 185 330
e 185 389
e 185 418
e 186 212
e 186 232
e 186 300
e 186 384
e 186 421
e 186 441
e 187 188
e 187 189
e 187 190
e 187 191
e 188 206
e 188 350
e 188 368
e 189 289
e 189 296
e 189 306
e 189 317
e 190 259
e 190 260
e 190 279
e 190 317
e 190 328
e 190 377
e 190 415
e 191 206
e 191 210
e 191 220
e 191 244
e 191 247
e 191 297
e 191 376
e 191 423
e 191 440
e 192 193
e 192 194
e 192 195
e 192 196
e 192 197
e 193 194
e 193 216
e 193 218
e 193 245
e 193 314
e 193 321
e 193 407
e 194 244
e 194 246
e 194 277
e 195 208
e 195 216
e 195 217
e 195 290
e 195 297
e 195 336
e 195 362
e 195 363
e 195 432
e 195 438
e 196 208
e 196 249
e 196 298
e 196 335
e 196 416
e 197 213
e 197 244
e 197 245
e 197 297
e 197 334
e 197 369
e 197 371
e 197 429
e 197 439
e 198 199
e 198 200
e 199 221
e 199 223
e 199 236
e 199 316
e 199 330
e 200 221
e 200 222
e 200 294
e 200 326
e 200 331
e 200 364
e 200 365
e 201 237
e 201 317
e 201 328
e 202 237
e 202 242
e 202 369
e 202 370
e 203 230
e 203 234
e 203 240
e 203 312
e 203 322
e 204 230
e 204 231
e 204 300
e 204 367
e 204 436
e 205 226
e 205 331
e 205 363
e 205 372
e 206 208
e 206 220
e 206 239
e 206 332
e 206 336
e 206 364
e 206 365
e 206 433
e 207 222
e 207 311
e 207 323
e 208 209
e 208 210
e 208 211
e 209 217
e 209 239
e 209 241
e 209 318
e 209 327
e 209 375
e 210 244
e 210 249
e 210 393
e 210 426
e 211 287
e 211 290
e 211 375
e 212 213
e 212 232
e 212 255
e 212 334
e 212 366
e 212 437
e 213 214
e 213 215
e 213 419
e 214 215
e 214 255
e 214 258
e 214 293
e 215 232
e 215 244
e 215 247
e 215 298
e 215 303
e 215 358
e 216 217
e 216 218
e 216 219
e 216 220
e 216 420
e 217 232
e 217 234
e 217 240
e 217 244
e 217 315
e 217 318
e 217 334
e 217 424
e 217 442
e 218 231
e 218 232
e 218 300
e 218 329
e 219 290
e 219 298
e 220 231
e 220 234
e 220 239
e 220 245
e 220 257
e 220 297
e 220 298
e 220 299
e 220 421
e 220 441
e 221 222
e 221 223
e 221 224
e 221 225
e 221 226
e 221 227
e 222 229
e 222 237
e 222 252
e 222 320
e 222 323
e 223 228
e 223 229
e 223 313
e 223 373
e 224 329
e 224 330
e 225 227
e 225 273
e 225 282
e 225 320
e 225 326
e 225 380
e 226 228
e 226 235
e 226 236
e 226 294
e 226 295
e 226 296
e 227 296
e 228 236
e 228 242
e 228 311
e 228 313
e 229 237
e 229 304
e 229 305
e 230 231
e 230 232
e 230 233
e 230 234
e 231 245
e 231 247
e 231 327
e 231 329
e 231 332
e 231 333
e 231 422
e 231 444
e 232 240
e 232 241
e 232 255
e 232 300
e 232 301
e 232 302
e 232 303
e 232 423
e 232 440
e 233 267
e 233 322
e 233 323
e 234 297
e 234 318
e 234 374
e 235 237
e 235 295
e 235 331
e 236 252
e 236 291
e 236 316
e 236 317
e 237 242
e 237 328
e 237 330
e 237 331
e 238 270
e 238 272
e 238 296
e 238 393
e 239 240
e 239 241
e 240 247
e 240 257
e 240 312
e 240 314
e 240 336
e 240 427
e 241 245
e 241 303
e 242 243
e 243 264
e 243 330
e 243 385
e 244 245
e 244 246
e 244 247
e 244 248
e 244 249
e 244 250
e 244 251
e 245 255
e 245 321
e 245 322
e 245 335
e 245 425
e 245 443
e 246 250
e 246 288
e 246 309
e 246 337
e 246 376
e 247 312
e 247 332
e 247 428
e 247 430
e 248 279
e 248 293
e 248 322
e 248 391
e 249 292
e 249 293
e 249 335
e 250 255
e 250 358
e 251 288
e 251 298
e 251 304
e 252 253
e 252 254
e 253 288
e 253 324
e 253 339
e 253 376
e 254 288
e 254 291
e 254 296
e 254 303
e 255 256
e 255 257
e 255 258
e 256 315
e 256 316
e 257 299
e 257 336
e 257 431
e 258 308
e 258 357
e 259 260
e 259 261
e 259 262
e 259 263
e 259 264
e 259 265
e 260 273
e 260 284
e 260 304
e 260 312
e 260 362
e 260 402
e 260 411
e 261 285
e 261 608
e 262 325
e 262 327
e 262 332
e 263 268
e 263 272
e 263 274
e 263 281
e 263 284
e 263 295
e 263 296
e 263 301
e 263 303
e 263 306
e 264 273
e 264 279
e 264 281
e 264 285
e 264 289
e 264 319
e 264 320
e 264 321
e 264 322
e 264 323
e 265 274
e 265 604
e 266 267
e 266 268
e 266 269
e 266 270
e 266 271
e 266 272
e 266 273
e 267 307
e 268 279
e 268 303
e 268 328
e 268 400
e 268 413
e 269 285
e 269 610
e 270 310
e 270 311
e 271 280
e 271 603
e 272 275
e 272 284
e 272 285
e 272 289
e 272 315
e 272 316
e 272 317
e 272 318
e 273 275
e 273 279
e 273 280
e 273 298
e 273 299
e 273 304
e 273 305
e 273 307
e 273 308
e 274 275
e 274 276
e 274 277
e 274 278
e 274 279
e 275 299
e 275 316
e 275 371
e 275 406
e 275 411
e 276 325
e 277 309
e 277 314
e 277 336
e 278 287
e 278 292
e 278 609
e 279 286
e 279 287
e 279 324
e 279 325
e 279 326
e 279 327
e 279 328
e 279 329
e 279 330
e 280 281
e 280 282
e 280 283
e 280 284
e 281 295
e 281 321
e 281 404
e 281 413
e 282 324
e 282 330
e 282 331
e 283 287
e 283 351
e 283 356
e 283 607
e 284 286
e 284 287
e 284 309
e 284 310
e 284 311
e 284 312
e 284 313
e 284 314
e 285 286
e 286 313
e 286 329
e 286 372
e 286 400
e 286 402
e 287 288
e 287 289
e 287 290
e 287 291
e 287 292
e 287 293
e 288 309
e 288 324
e 289 318
e 289 323
e 289 375
e 289 404
e 289 406
e 290 293
e 291 311
e 291 384
e 292 352
e 292 405
e 293 297
e 293 298
e 293 308
e 294 365
e 295 345
e 295 383
e 295 395
e 297 363
e 297 437
e 299 342
e 299 347
e 299 387
e 300 407
e 300 433
e 302 430
e 303 337
e 303 352
e 303 384
e 303 396
e 304 339
e 304 349
e 304 386
e 304 392
e 306 381
e 307 308
e 307 385
e 308 372
e 308 391
e 309 310
e 309 379
e 310 371
e 310 393
e 312 346
e 312 359
e 312 377
e 313 340
e 313 360
e 313 378
e 313 392
e 316 348
e 316 355
e 316 386
e 316 388
e 318 343
e 318 387
e 318 389
e 320 326
e 321 350
e 321 353
e 321 384
e 321 389
e 323 341
e 323 354
e 323 383
e 323 388
e 324 325
e 324 362
e 324 380
e 325 397
e 328 344
e 328 361
e 328 378
e 328 395
e 329 338
e 329 357
e 329 377
e 329 396
e 331 363
e 332 368
e 332 398
e 332 432
e 332 435
e 332 438
e 333 431
e 334 369
e 334 436
e 335 385
e 335 420
e 336 365
e 336 398
e 336 429
e 336 439
e 337 365
e 338 341
e 338 408
e 338 417
e 339 363
e 340 343
e 340 414
e 340 415
e 341 412
e 341 418
e 342 366
e 343 409
e 343 410
e 344 368
e 345 359
e 345 399
e 345 412
e 346 369
e 347 361
e 347 401
e 347 410
e 348 369
e 349 353
e 349 405
e 349 414
e 350 368
e 351 375
e 351 397
e 352 355
e 352 403
e 352 417
e 353 403
e 353 409
e 354 366
e 355 405
e 355 418
e 356 385
e 357 363
e 359 401
e 359 408
e 360 365
e 361 399
e 361 415
e 363 376
e 363 419
e 365 376
e 370 402
e 373 385
e 374 391
e 375 416
e 377 380
e 377 394
e 378 379
e 378 391
e 379 395
e 380 422
e 381 383
e 381 388
e 382 384
e 382 396
e 382 425
e 383 397
e 384 390
e 384 420
e 385 387
e 385 389
e 385 421
e 387 393
e 389 390
e 390 424
e 391 392
e 393 427
e 394 396
e 394 423
e 395 397
e 398 419
e 399 589
e 400 544
e 401 591
e 402 541
e 403 590
e 404 546
e 405 592
e 406 543
e 407 416
e 408 594
e 409 593
e 410 595
e 411 542
e 412 597
e 413 545
e 414 596
e 415 598
e 417 599
e 418 600
e 419 429
e 419 437
e 419 438
e 420 421
e 420 425
e 421 433
e 421 440
e 421 441
e 422 432
e 422 436
e 422 442
e 422 444
e 423 426
e 423 437
e 423 440
e 423 441
e 424 438
e 424 442
e 424 444
e 425 439
e 425 443
e 426 427
e 426 428
e 427 428
e 427 429
e 427 434
e 427 443
e 428 430
e 428 438
e 428 444
e 429 439
e 429 443
e 430 435
e 430 440
e 431 441
e 431 444
e 432 438
e 432 442
e 433 435
e 433 436
e 433 439
e 433 440
e 434 437
e 434 438
e 434 443
e 435 438
e 436 439
e 436 442
e 437 438
e 437 441
e 438 444
e 445 463
e 445 464
e 445 475
e 445 480
e 445 505
e 445 509
e 445 522
e 445 523
e 445 532
e 445 539
e 445 541
e 445 542
e 445 547
e 445 548
e 445 559
e 446 463
e 446 465
e 446 471
e 446 478
e 446 506
e 446 514
e 446 524
e 446 527
e 446 531
e 446 534
e 446 542
e 446 543
e 446 549
e 446 551
e 446 560
e 447 466
e 447 467
e 447 474
e 447 477
e 447 507
e 447 516
e 447 525
e 447 528
e 447 530
e 447 533
e 447 544
e 447 545
e 447 550
e 447 552
e 447 561
e 448 467
e 448 468
e 448 469
e 448 479
e 448 508
e 448 510
e 448 521
e 448 526
e 448 529
e 448 540
e 448 545
e 448 546
e 448 553
e 448 554
e 448 562
e 449 465
e 449 468
e 449 470
e 449 473
e 449 512
e 449 515
e 449 518
e 449 520
e 449 536
e 449 538
e 449 543
e 449 546
e 449 555
e 449 557
e 449 563
e 450 464
e 450 466
e 450 472
e 450 476
e 450 511
e 450 513
e 450 517
e 450 519
e 450 535
e 450 537
e 450 541
e 450 544
e 450 556
e 450 558
e 450 564
e 451 454
e 451 461
e 451 474
e 451 496
e 451 500
e 451 576
e 452 453
e 452 462
e 452 471
e 452 497
e 452 503
e 452 572
e 453 462
e 453 479
e 453 487
e 453 502
e 453 566
e 454 461
e 454 480
e 454 493
e 454 499
e 454 567
e 455 458
e 455 459
e 455 469
e 455 495
e 455 504
e 455 574
e 456 457
e 456 460
e 456 477
e 456 491
e 456 499
e 456 565
e 457 460
e 457 475
e 457 498
e 457 501
e 457 570
e 458 459
e 458 478
e 458 489
e 458 502
e 458 568
e 459 476
e 459 490
e 459 503
e 459 575
e 460 470
e 460 492
e 460 500
e 460 571
e 461 473
e 461 494
e 461 501
e 461 573
e 462 472
e 462 488
e 462 504
e 462 569
e 463 466
e 463 468
e 463 478
e 463 480
e 463 489
e 463 493
e 463 505
e 463 506
e 463 535
e 463 536
e 463 561
e 463 562
e 463 565
e 463 566
e 463 631
e 463 632
e 464 465
e 464 467
e 464 472
e 464 475
e 464 488
e 464 498
e 464 509
e 464 513
e 464 530
e 464 534
e 464 562
e 464 563
e 464 573
e 464 574
e 465 467
e 465 470
e 465 471
e 465 492
e 465 497
e 465 514
e 465 515
e 465 529
e 465 539
e 465 561
e 465 564
e 465 575
e 465 576
e 466 468
e 466 474
e 466 476
e 466 490
e 466 496
e 466 511
e 466 516
e 466 532
e 466 540
e 466 560
e 466 563
e 466 571
e 466 572
e 466 631
e 466 633
e 467 477
e 467 479
e 467 487
e 467 491
e 467 507
e 467 508
e 467 537
e 467 538
e 467 559
e 467 560
e 467 567
e 467 568
e 468 469
e 468 473
e 468 494
e 468 495
e 468 510
e 468 512
e 468 531
e 468 533
e 468 559
e 468 564
e 468 569
e 468 570
e 468 632
e 468 633
e 469 484
e 469 503
e 469 506
e 469 526
e 469 531
e 469 555
e 469 568
e 469 571
e 469 583
e 470 482
e 470 499
e 470 509
e 470 520
e 470 539
e 470 551
e 470 568
e 470 570
e 470 579
e 471 482
e 471 504
e 471 508
e 471 524
e 471 529
e 471 557
e 471 566
e 471 573
e 471 584
e 472 483
e 472 502
e 472 514
e 472 517
e 472 534
e 472 547
e 472 567
e 472 572
e 472 580
e 473 484
e 473 499
e 473 516
e 473 518
e 473 533
e 473 553
e 473 566
e 473 576
e 473 577
e 474 481
e 474 501
e 474 505
e 474 525
e 474 532
e 474 558
e 474 567
e 474 569
e 474 582
e 475 483
e 475 500
e 475 507
e 475 523
e 475 530
e 475 556
e 475 565
e 475 575
e 475 581
e 476 481
e 476 502
e 476 510
e 476 519
e 476 540
e 476 552
e 476 565
e 476 574
e 476 578
e 477 485
e 477 501
e 477 515
e 477 528
e 477 538
e 477 554
e 477 571
e 477 574
e 477 586
e 478 486
e 478 504
e 478 511
e 478 527
e 478 535
e 478 548
e 478 570
e 478 575
e 478 588
e 479 485
e 479 503
e 479 513
e 479 521
e 479 537
e 479 550
e 479 569
e 479 576
e 479 587
e 480 486
e 480 500
e 480 512
e 480 522
e 480 536
e 480 549
e 480 572
e 480 573
e 480 585
e 481 552
e 481 558
e 481 581
e 481 587
e 482 551
e 482 557
e 482 583
e 482 585
e 483 547
e 483 556
e 483 582
e 483 588
e 484 553
e 484 555
e 484 584
e 484 586
e 485 550
e 485 554
e 485 577
e 485 578
e 486 548
e 486 549
e 486 579
e 486 580
e 487 536
e 487 628
e 488 533
e 488 620
e 489 538
e 489 623
e 490 539
e 490 622
e 491 535
e 491 626
e 492 540
e 492 619
e 493 537
e 493 629
e 494 534
e 494 621
e 495 530
e 495 630
e 496 529
e 496 624
e 497 532
e 497 625
e 498 531
e 498 627
e 499 503
e 499 504
e 499 570
e 499 576
e 499 616
e 499 618
e 499 626
e 499 629
e 500 502
e 500 504
e 500 565
e 500 573
e 500 611
e 500 619
e 500 624
e 501 502
e 501 503
e 501 567
e 501 571
e 501 621
e 501 627
e 502 572
e 502 574
e 502 614
e 502 617
e 502 623
e 502 628
e 503 568
e 503 569
e 503 613
e 503 615
e 503 622
e 503 625
e 504 566
e 504 575
e 504 612
e 504 620
e 504 630
e 505 513
e 505 514
e 505 541
e 505 561
e 505 569
e 505 581
e 505 588
e 505 589
e 505 602
e 505 610
e 505 618
e 505 630
e 506 509
e 506 515
e 506 543
e 506 562
e 506 571
e 506 584
e 506 585
e 506 590
e 506 601
e 506 607
e 506 614
e 506 624
e 507 510
e 507 511
e 507 544
e 507 559
e 507 575
e 507 582
e 507 587
e 507 591
e 507 602
e 507 608
e 507 616
e 507 625
e 508 512
e 508 516
e 508 546
e 508 560
e 508 573
e 508 583
e 508 586
e 508 592
e 508 601
e 508 609
e 508 617
e 508 627
e 509 511
e 509 542
e 509 563
e 509 568
e 509 580
e 509 585
e 509 593
e 509 605
e 509 609
e 509 628
e 510 515
e 510 545
e 510 564
e 510 565
e 510 577
e 510 587
e 510 594
e 510 606
e 510 610
e 510 629
e 511 541
e 511 560
e 511 570
e 511 580
e 511 582
e 511 595
e 511 604
e 511 613
e 511 621
e 512 514
e 512 543
e 512 559
e 512 572
e 512 579
e 512 583
e 512 596
e 512 604
e 512 605
e 512 622
e 513 516
e 513 544
e 513 562
e 513 576
e 513 578
e 513 581
e 513 597
e 513 603
e 513 606
e 513 612
e 513 619
e 514 542
e 514 564
e 514 567
e 514 579
e 514 588
e 514 598
e 514 608
e 514 615
e 514 626
e 515 546
e 515 561
e 515 574
e 515 577
e 515 584
e 515 599
e 515 603
e 515 611
e 515 620
e 516 545
e 516 563
e 516 566
e 516 578
e 516 586
e 516 600
e 516 607
e 516 623
e 517 523
e 517 532
e 517 558
e 517 595
e 517 608
e 518 526
e 518 529
e 518 557
e 518 599
e 518 607
e 519 525
e 519 530
e 519 556
e 519 597
e 519 610
e 520 524
e 520 531
e 520 555
e 520 596
e 520 609
e 521 528
e 521 533
e 521 553
e 521 594
e 521 603
e 522 527
e 522 534
e 522 547
e 522 593
e 522 604
e 523 535
e 523 548
e 523 589
e 523 608
e 524 536
e 524 549
e 524 590
e 524 609
e 525 537
e 525 550
e 525 591
e 525 610
e 526 538
e 526 554
e 526 592
e 526 607
e 527 539
e 527 551
e 527 598
e 527 604
e 528 540
e 528 552
e 528 600
e 528 603
e 529 562
e 529 576
e 529 599
e 529 632
e 530 561
e 530 574
e 530 597
e 530 631
e 531 560
e 531 570
e 531 596
e 531 615
e 532 559
e 532 572
e 532 595
e 533 561
e 533 569
e 533 594
e 533 616
e 534 560
e 534 573
e 534 593
e 534 614
e 534 631
e 535 564
e 535 565
e 535 589
e 535 612
e 536 563
e 536 566
e 536 590
e 536 611
e 537 564
e 537 567
e 537 591
e 537 613
e 537 633
e 538 563
e 538 568
e 538 592
e 538 633
e 539 559
e 539 575
e 539 598
e 539 618
e 539 632
e 540 562
e 540 571
e 540 600
e 540 617
e 541 547
e 541 556
e 541 602
e 542 548
e 542 549
e 542 605
e 543 551
e 543 557
e 543 601
e 543 605
e 544 552
e 544 558
e 544 602
e 544 606
e 545 550
e 545 554
e 545 606
e 546 553
e 546 555
e 546 601
e 547 580
e 547 598
e 548 588
e 548 595
e 549 585
e 549 596
e 550 587
e 550 597
e 551 579
e 551 593
e 552 578
e 552 594
e 553 577
e 553 600
e 554 586
e 554 599
e 555 583
e 555 590
e 556 581
e 556 591
e 557 584
e 557 592
e 558 582
e 558 589
e 559 568
e 559 569
e 559 604
e 559 608
e 560 567
e 560 571
e 560 604
e 560 609
e 561 566
e 561 575
e 561 603
e 561 610
e 562 565
e 562 573
e 562 603
e 562 607
e 563 572
e 563 574
e 563 607
e 563 609
e 564 570
e 564 576
e 564 608
e 564 610
e 565 581
e 565 611
e 566 584
e 566 612
e 567 582
e 567 615
e 568 583
e 568 613
e 569 587
e 569 615
e 569 618
e 570 579
e 570 613
e 570 616
e 571 586
e 571 614
e 572 580
e 572 617
e 573 585
e 573 617
e 574 578
e 574 611
e 574 614
e 575 588
e 575 616
e 576 577
e 576 612
e 576 618
e 577 578
e 577 594
e 577 599
e 578 597
e 578 600
e 579 580
e 579 596
e 579 598
e 580 593
e 580 595
e 581 587
e 581 589
e 581 597
e 582 588
e 582 591
e 582 595
e 583 585
e 583 592
e 583 596
e 584 586
e 584 590
e 584 599
e 585 590
e 585 593
e 586 592
e 586 600
e 587 591
e 587 594
e 588 589
e 588 598
e 601 607
e 601 609
e 602 608
e 602 610
e 603 606
e 604 605
e 605 609
e 606 610
e 611 620
e 611 624
e 612 619
e 612 630
e 613 621
e 613 625
e 613 633
e 614 624
e 614 628
e 614 631
e 615 622
e 615 626
e 616 625
e 616 629
e 617 623
e 617 627
e 618 626
e 618 630
e 618 632
